n_blocks=21;
chip_width=27;
widths=[3, 3, 3, 3, 3, 3, 3, 3, 3, 3, 3, 3, 3, 4, 4, 4, 4, 4, 4, 4, 4];
heights=[3, 4, 5, 6, 7, 8, 9, 10, 11, 12, 19, 20, 21, 3, 4, 6, 7, 8, 14, 19, 20];
search=1;
restart=2;
chip_max_height=70;
